p cnf 108 372
3 -1 0
3 -2 0
1 2 -3 0
5 -6 -7 0
-5 6 -7 0
5 6 7 0
-5 -6 7 0
4 7 -8 0
-4 -7 -8 0
4 -7 8 0
-4 7 8 0
-9 5 -10 0
9 -5 -10 0
-9 -5 10 0
9 5 10 0
12 -10 0
12 -11 0
10 11 -12 0
-12 -13 0
12 -13 0
14 -8 0
14 -13 0
8 13 -14 0
16 7 0
16 15 0
-7 -15 -16 0
-13 16 -17 0
13 -16 -17 0
-13 -16 17 0
13 16 17 0
-5 11 -18 0
5 -11 -18 0
-5 -11 18 0
5 11 18 0
19 -16 0
19 18 0
16 -18 -19 0
17 19 -20 0
-17 -19 -20 0
17 -19 20 0
-17 19 20 0
-14 -20 -21 0
14 20 -21 0
-14 20 21 0
14 -20 21 0
22 -3 0
22 21 0
3 -21 -22 0
-22 -16 -23 0
22 16 -23 0
-22 16 23 0
22 -16 23 0
24 23 0
24 13 0
-23 -13 -24 0
-23 -24 -25 0
23 24 -25 0
-23 24 25 0
23 -24 25 0
-27 -6 0
-27 -26 0
6 26 27 0
-28 -27 0
-28 -4 0
27 4 28 0
29 -25 0
29 -28 0
25 28 -29 0
-8 -30 -31 0
8 30 -31 0
-8 30 31 0
8 -30 31 0
32 11 0
32 9 0
-11 -9 -32 0
30 -32 -33 0
-30 32 -33 0
30 32 33 0
-30 -32 33 0
34 -33 0
34 8 0
33 -8 -34 0
35 31 0
35 34 0
-31 -34 -35 0
-36 -29 0
-36 -35 0
29 35 36 0
38 37 0
38 -5 0
-37 5 -38 0
-39 -38 0
-39 10 0
38 -10 39 0
-5 -39 -40 0
5 39 -40 0
-5 39 40 0
5 -39 40 0
-41 -40 0
-41 22 0
40 -22 41 0
43 42 0
43 4 0
-42 -4 -43 0
-44 -5 0
-44 -43 0
5 43 44 0
-41 44 -45 0
41 -44 -45 0
-41 -44 45 0
41 44 45 0
6 46 0
-6 46 0
47 15 0
47 23 0
-15 -23 -47 0
46 -47 -48 0
-46 47 -48 0
46 47 48 0
-46 -47 48 0
14 37 -49 0
-14 -37 -49 0
14 -37 49 0
-14 37 49 0
-50 -49 0
-50 -15 0
49 15 50 0
51 -12 0
51 -50 0
12 50 -51 0
52 21 0
52 -51 0
-21 51 -52 0
-53 48 0
-53 -52 0
-48 52 53 0
-43 25 -54 0
43 -25 -54 0
-43 -25 54 0
43 25 54 0
-56 -55 0
-56 -51 0
55 51 56 0
57 -19 0
57 -4 0
19 4 -57 0
-58 -1 0
-58 -57 0
1 57 58 0
-59 58 0
-59 -34 0
-58 34 59 0
60 2 0
60 -59 0
-2 59 -60 0
-61 60 0
-61 -20 0
-60 20 61 0
62 -56 0
62 61 0
56 -61 -62 0
-63 54 0
-63 62 0
-54 -62 63 0
-53 -63 -64 0
53 63 -64 0
-53 63 64 0
53 -63 64 0
65 -39 0
65 -19 0
39 19 -65 0
64 -65 -66 0
-64 65 -66 0
64 65 66 0
-64 -65 66 0
-67 -45 0
-67 66 0
45 -66 67 0
-68 -36 0
-68 -67 0
36 67 68 0
69 -9 0
69 -40 0
9 40 -69 0
70 46 0
70 -50 0
-46 50 -70 0
-71 -70 0
-71 -39 0
70 39 71 0
72 -34 0
72 3 0
34 -3 -72 0
-73 -71 0
-73 72 0
71 -72 73 0
74 -31 0
74 34 0
31 -34 -74 0
73 74 -75 0
-73 -74 -75 0
73 -74 75 0
-73 74 75 0
76 2 0
76 37 0
-2 -37 -76 0
77 -37 0
77 -76 0
37 76 -77 0
50 77 -78 0
-50 -77 -78 0
50 -77 78 0
-50 77 78 0
-78 -79 -80 0
78 79 -80 0
-78 79 80 0
78 -79 80 0
-81 -75 0
-81 80 0
75 -80 81 0
82 -69 0
82 81 0
69 -81 -82 0
-37 46 -83 0
37 -46 -83 0
-37 -46 83 0
37 46 83 0
84 -30 0
84 -34 0
30 34 -84 0
83 -84 -85 0
-83 84 -85 0
83 84 85 0
-83 -84 85 0
12 7 -86 0
-12 -7 -86 0
12 -7 86 0
-12 7 86 0
87 42 0
87 -49 0
-42 49 -87 0
88 42 0
88 -42 0
-87 -88 -89 0
87 88 -89 0
-87 88 89 0
87 -88 89 0
-32 76 -90 0
32 -76 -90 0
-32 -76 90 0
32 76 90 0
-91 -90 0
-91 5 0
90 -5 91 0
-31 -91 -92 0
31 91 -92 0
-31 91 92 0
31 -91 92 0
93 92 0
93 16 0
-92 -16 -93 0
-94 89 0
-94 93 0
-89 -93 94 0
95 2 0
95 -1 0
-2 1 -95 0
-96 18 0
-96 21 0
-18 -21 96 0
95 -96 -97 0
-95 96 -97 0
95 96 97 0
-95 -96 97 0
-98 -94 0
-98 -97 0
94 97 98 0
99 -42 0
99 -92 0
42 92 -99 0
98 99 -100 0
-98 -99 -100 0
98 -99 100 0
-98 99 100 0
-101 86 0
-101 100 0
-86 -100 101 0
102 -37 0
102 -46 0
37 46 -102 0
-103 -7 0
-103 32 0
7 -32 103 0
-104 -102 0
-104 103 0
102 -103 104 0
105 101 0
105 104 0
-101 -104 -105 0
106 85 0
106 -105 0
-85 105 -106 0
82 -106 -107 0
-82 106 -107 0
82 106 107 0
-82 -106 107 0
-108 68 0
-108 107 0
-68 -107 108 0
92 -98 -6 32 101 -59 0
107 -95 60 -46 50 0
-8 34 84 74 -17 0
-70 90 0
60 -93 73 -25 0
-16 12 -18 48 11 0
14 47 -21 0
-105 65 0
-8 -108 46 0
-64 104 0
18 71 24 -59 -102 0
45 -96 0
-29 18 101 0
93 -54 21 -22 56 -32 0
33 29 12 102 -64 0
-88 81 0
-1 -94 -39 0
-8 -7 27 0
6 13 35 0
-47 30 87 0
-52 -48 -65 40 0
12 51 -46 77 45 -66 0
-32 94 49 0
28 19 -43 62 87 0
-66 -17 -95 -24 10 69 0
-88 -76 0
-61 -68 0
57 -91 0
-83 -11 91 34 0
-36 -75 -73 105 0
-39 11 47 0
84 59 -103 92 78 0
-100 93 -99 0
-3 18 99 66 51 6 0
-61 66 0
13 -5 -79 -45 -50 0
92 33 6 0
-104 0
78 -44 -14 35 0
-29 16 78 0
-22 81 40 -106 0
-97 -60 0
63 21 -56 -59 62 0
-9 -5 24 -68 101 0
61 95 0
-71 70 68 75 -69 0
58 -79 0
90 -4 0
-89 78 33 -47 59 0
52 -91 0
7 -37 99 -13 0
81 -29 -37 5 0
27 9 -12 87 42 40 0
-33 27 0
10 108 -63 -81 25 0
64 -54 88 0
-72 -11 61 30 0
-93 19 0
-8 20 0
37 -72 5 82 89 90 0
10 -96 88 0
50 -14 0
108 0
